NAME 
ROWS
 N  OBJ
 L  R0      
 L  R1      
 E  R2      
 E  R3      
 E  R4      
 E  R5      
 E  R6      
 E  R7      
 E  R8      
 E  R9      
 E  R10     
 E  R11     
 E  R12     
 E  R13     
 E  R14     
 E  R15     
 E  R16     
 E  R17     
 E  R18     
 E  R19     
 E  R20     
 E  R21     
COLUMNS
    MARKER    'MARKER'                 'INTORG'
    I0(7)     OBJ       -117
    I0(7)     R0        41
    I0(7)     R1        -186
    I0(7)     R2        18
    I0(7)     R7        10
    I0(7)     R10       17
    I0(7)     R11       2
    I0(7)     R21       1
    I1(9)     OBJ       -15
    I1(9)     R0        5
    I1(9)     R1        -177
    I1(9)     R2        13
    I1(9)     R3        1
    I1(9)     R4        12
    I1(9)     R7        10
    I1(9)     R8        6
    I1(9)     R11       4
    I1(9)     R21       1
    I2(8)     OBJ       31
    I2(8)     R0        -12
    I2(8)     R1        -16
    I2(8)     R2        12
    I2(8)     R4        6
    I2(8)     R5        15
    I2(8)     R7        17
    I2(8)     R10       12
    I2(8)     R21       1
    I3(11)    OBJ       -200
    I3(11)    R0        -5
    I3(11)    R1        55
    I3(11)    R2        15
    I3(11)    R5        3
    I3(11)    R6        3
    I3(11)    R7        13
    I3(11)    R8        7
    I3(11)    R9        19
    I3(11)    R10       12
    I3(11)    R11       15
    I3(11)    R21       1
    I4(8)     OBJ       -22
    I4(8)     R0        99
    I4(8)     R1        -9
    I4(8)     R3        7
    I4(8)     R5        8
    I4(8)     R6        6
    I4(8)     R8        1
    I4(8)     R10       19
    I4(8)     R21       1
    I5(7)     OBJ       -179
    I5(7)     R0        125
    I5(7)     R1        -131
    I5(7)     R2        13
    I5(7)     R6        7
    I5(7)     R7        1
    I5(7)     R8        11
    I5(7)     R21       1
    I6(8)     OBJ       133
    I6(8)     R0        -45
    I6(8)     R1        -192
    I6(8)     R2        14
    I6(8)     R4        5
    I6(8)     R7        6
    I6(8)     R8        17
    I6(8)     R11       4
    I6(8)     R21       1
    I7(7)     OBJ       96
    I7(7)     R0        -191
    I7(7)     R1        -191
    I7(7)     R3        6
    I7(7)     R4        19
    I7(7)     R5        6
    I7(7)     R6        -1
    I7(7)     R21       1
    I8(8)     OBJ       18
    I8(8)     R0        152
    I8(8)     R1        70
    I8(8)     R2        4
    I8(8)     R3        10
    I8(8)     R4        19
    I8(8)     R5        15
    I8(8)     R11       18
    I8(8)     R21       1
    I9(6)     OBJ       -138
    I9(6)     R0        179
    I9(6)     R1        31
    I9(6)     R3        11
    I9(6)     R5        4
    I9(6)     R8        11
    I9(6)     R21       1
    MARKER    'MARKER'                 'INTEND'
    C10(14)   OBJ       9
    C10(14)   R0        -1
    C10(14)   R2        13
    C10(14)   R4        5
    C10(14)   R6        3
    C10(14)   R7        7
    C10(14)   R8        17
    C10(14)   R9        6
    C10(14)   R10       13
    C10(14)   R12       9
    C10(14)   R13       17
    C10(14)   R15       2
    C10(14)   R17       13
    C10(14)   R18       14
    C10(14)   R19       15
    C11(9)    OBJ       8
    C11(9)    R0        5
    C11(9)    R1        -5
    C11(9)    R3        6
    C11(9)    R4        -1
    C11(9)    R6        8
    C11(9)    R9        8
    C11(9)    R11       10
    C11(9)    R12       17
    C11(9)    R13       6
    C12(9)    OBJ       -5
    C12(9)    R0        9
    C12(9)    R1        4
    C12(9)    R3        9
    C12(9)    R8        2
    C12(9)    R9        1
    C12(9)    R16       1
    C12(9)    R17       11
    C12(9)    R18       3
    C12(9)    R19       4
    C13(15)   OBJ       -3
    C13(15)   R0        -1
    C13(15)   R1        4
    C13(15)   R2        8
    C13(15)   R3        12
    C13(15)   R8        2
    C13(15)   R9        9
    C13(15)   R10       16
    C13(15)   R11       8
    C13(15)   R13       5
    C13(15)   R14       -1
    C13(15)   R15       9
    C13(15)   R16       6
    C13(15)   R17       7
    C13(15)   R19       11
    C13(15)   R20       9
    C14(9)    OBJ       -6
    C14(9)    R0        -2
    C14(9)    R1        2
    C14(9)    R6        19
    C14(9)    R7        1
    C14(9)    R11       4
    C14(9)    R15       17
    C14(9)    R17       5
    C14(9)    R18       18
    C14(9)    R19       5
    C15(12)   OBJ       4
    C15(12)   R0        9
    C15(12)   R1        1
    C15(12)   R5        6
    C15(12)   R8        12
    C15(12)   R9        7
    C15(12)   R10       19
    C15(12)   R11       13
    C15(12)   R13       18
    C15(12)   R14       7
    C15(12)   R18       9
    C15(12)   R19       -1
    C15(12)   R20       12
    C16(13)   OBJ       -6
    C16(13)   R0        -2
    C16(13)   R1        9
    C16(13)   R2        1
    C16(13)   R3        8
    C16(13)   R4        6
    C16(13)   R6        2
    C16(13)   R7        7
    C16(13)   R10       12
    C16(13)   R11       7
    C16(13)   R13       18
    C16(13)   R15       9
    C16(13)   R16       10
    C16(13)   R18       16
    C17(14)   OBJ       -5
    C17(14)   R0        -5
    C17(14)   R1        1
    C17(14)   R3        15
    C17(14)   R4        11
    C17(14)   R6        17
    C17(14)   R7        12
    C17(14)   R8        15
    C17(14)   R9        -1
    C17(14)   R11       5
    C17(14)   R14       10
    C17(14)   R15       16
    C17(14)   R17       2
    C17(14)   R18       16
    C17(14)   R19       3
    C18(13)   OBJ       -3
    C18(13)   R0        3
    C18(13)   R1        4
    C18(13)   R2        15
    C18(13)   R3        14
    C18(13)   R4        8
    C18(13)   R7        13
    C18(13)   R9        8
    C18(13)   R11       12
    C18(13)   R12       9
    C18(13)   R17       6
    C18(13)   R18       16
    C18(13)   R19       16
    C18(13)   R20       19
    C19(12)   OBJ       3
    C19(12)   R0        -8
    C19(12)   R1        7
    C19(12)   R2        -1
    C19(12)   R4        5
    C19(12)   R5        14
    C19(12)   R6        2
    C19(12)   R7        15
    C19(12)   R8        11
    C19(12)   R10       8
    C19(12)   R15       7
    C19(12)   R18       1
    C19(12)   R20       5
    C20(1)    R2        1
    C21(1)    R3        1
    C22(1)    R4        1
    C23(1)    R5        1
    C24(1)    R6        1
    C25(1)    R7        1
    C26(1)    R8        1
    C27(1)    R9        1
    C28(1)    R10       1
    C29(1)    R11       1
    C30(1)    R12       1
    C31(1)    R13       1
    C32(1)    R14       1
    C33(1)    R15       1
    C34(1)    R16       1
    C35(1)    R17       1
    C36(1)    R18       1
    C37(1)    R19       1
    C38(1)    R20       1
    C39(1)    R21       1
RHS
    RHS1      R0        3.4091688584955284e+02
    RHS1      R1        -6.3466596528142318e+00
    RHS1      R2        70
    RHS1      R3        71
    RHS1      R4        97
    RHS1      R5        85
    RHS1      R6        62
    RHS1      R7        67
    RHS1      R8        86
    RHS1      R9        87
    RHS1      R10       61
    RHS1      R11       93
    RHS1      R12       71
    RHS1      R13       93
    RHS1      R14       63
    RHS1      R15       52
    RHS1      R16       58
    RHS1      R17       72
    RHS1      R18       92
    RHS1      R19       61
    RHS1      R20       58
    RHS1      R21       3
BOUNDS
 UP BND1      I0(7)     1
 UP BND1      I1(9)     1
 UP BND1      I2(8)     1
 UP BND1      I3(11)    1
 UP BND1      I4(8)     1
 UP BND1      I5(7)     1
 UP BND1      I6(8)     1
 UP BND1      I7(7)     1
 UP BND1      I8(8)     1
 UP BND1      I9(6)     1
ENDATA
